# Objective value = 125
WA1n 0
WA1p 0
WA2n 0
WA2p 1
WB1n 0
WB1p 0
WB2n 0
WB2p 1
WC1n 1
WC1p 0
WC2n 0
WC2p 0
WD1n 1
WD1p 0
WD2n 0
WD2p 0
WE1n 0
WE1p 2
WE2n 0
WE2p 1
WF1n 3
WF1p 0
WF2n 1
WF2p 0
WG1n 0
WG1p 6
WG2n 0
WG2p 0
WH1n 10
WH1p 0
WH2n 0
WH2p 0
WI1n 0
WI1p 10
WI2n 0
WI2p 0
WJ1n 26
WJ1p 0
WJ2n 0
WJ2p 0
WK1n 26
WK1p 0
WK2n 0
WK2p 0
WL1n 26
WL1p 0
WL2n 0
WL2p 0
WT1n 6
WT1p 0
WT2n 0
WT2p 0
100 110
a 1
b 1
c 1
d 1
e 1
f 1
g 1
h 1
i 1
j 1
k 1
l 1
m 1
n 1
o 1
p 1
q 1
r 1
s 0
t 0
u 0
v 0
w 0
x 0
y 1
z 1
